Cs2GeSnCl4Br2 from CASTEP/MS GeoOpt-out.
   1.00000000000000     
     7.9501446342574864    0.1982121531594003    0.0000000650784088
     0.1982121828959625    7.9501446860033225    0.0000000357886865
     0.0000000947888987    0.0000000553652563   10.9618638193788023
   Cs   Ge   Sn   Cl   Br
     4     2     2     8     4
Direct
  0.5000000267013694  0.0000000022392845  0.7499998460057516
 -0.0000000051117484  0.4999999922679070  0.7499997013548552
  0.4999999434796119  0.0000000054427013  0.2500001994667795
 -0.0000000050864842  0.4999999933292861  0.2500002738729912
  0.0000000001833383 -0.0000000027829688  0.0000000120728674
  0.5000000091795703  0.4999999952784462  0.5000000171030355
 -0.0000000034959728 -0.0000000002990273  0.5000000391825776
  0.4999999972109685  0.4999999885202351 -0.0000000066025253
 -0.0000000222416276  0.0000000281968100  0.2432778180268746
  0.5000000194472615  0.5000000077269731  0.7432777140531607
  0.0000000182786157  0.0000000112272807  0.7567221600626866
  0.5000000026892556  0.4999999746967480  0.2567223040482438
  0.7432769898285085  0.2567230420259787  0.5000000704340958
  0.2432769897478350  0.7567230772444677 -0.0000000320053733
  0.2567230218932294  0.7432770000214237  0.5000000570844201
  0.7567230172689966  0.2432769123536914  0.0000000067019709
  0.7439431174779658  0.7439431269597016  0.5000000272983186
  0.2439431246025109  0.2439431117783116 -0.0000000093638184
  0.2560568602482975  0.2560568499965997  0.5000000414342162
  0.7560568707984873  0.7560568969761651 -0.0000000058311230
 
  0.00000000E+00  0.00000000E+00  0.00000000E+00
  0.00000000E+00  0.00000000E+00  0.00000000E+00
  0.00000000E+00  0.00000000E+00  0.00000000E+00
  0.00000000E+00  0.00000000E+00  0.00000000E+00
  0.00000000E+00  0.00000000E+00  0.00000000E+00
  0.00000000E+00  0.00000000E+00  0.00000000E+00
  0.00000000E+00  0.00000000E+00  0.00000000E+00
  0.00000000E+00  0.00000000E+00  0.00000000E+00
  0.00000000E+00  0.00000000E+00  0.00000000E+00
  0.00000000E+00  0.00000000E+00  0.00000000E+00
  0.00000000E+00  0.00000000E+00  0.00000000E+00
  0.00000000E+00  0.00000000E+00  0.00000000E+00
  0.00000000E+00  0.00000000E+00  0.00000000E+00
  0.00000000E+00  0.00000000E+00  0.00000000E+00
  0.00000000E+00  0.00000000E+00  0.00000000E+00
  0.00000000E+00  0.00000000E+00  0.00000000E+00
  0.00000000E+00  0.00000000E+00  0.00000000E+00
  0.00000000E+00  0.00000000E+00  0.00000000E+00
  0.00000000E+00  0.00000000E+00  0.00000000E+00
  0.00000000E+00  0.00000000E+00  0.00000000E+00
