Cs2GeSnCl4Br2 postISIF3 mode60 -Q maxdis
   1.00000000000000     
     8.1520629490446694    0.1932587717693606   -0.0434156107232357
     0.1940834232425807    8.0990765843515380   -0.0027532890662364
    -0.0603508090128708   -0.0028660437981522   11.2175913998792911
   Cs   Ge   Sn   Cl   Br
     4     2     2     8     4
Direct
  0.4981828444983876  0.9996817941340126  0.7531290423618131
  0.9960566119644270  0.5004152733444158  0.7526576484485332
  0.4960261086591515  0.0005038192021800  0.2527249247286676
  0.9982317992546967  0.4995723620775863  0.2531111626680413
  0.9828049740963039  0.0024976787998625  0.0185812425516119
  0.4828215762738566  0.5024596056994781  0.5185914122951729
  0.9818207650609025  0.0082986449442117  0.5072724482811068
  0.4817790103162025  0.5083413167229125  0.0072837205832172
  0.0455309062839078  0.9538480435380379  0.2254648332492550
  0.5455909746135390  0.4537551669347764  0.7254879804671148
  0.9382523667026135  0.0568430983811652  0.7330113083069989
  0.4382232494433538  0.5568753794627526  0.2330069059077573
  0.7646993272881417  0.2357747733599567  0.4487079698165743
  0.2646358109482136  0.7358172334189490  0.9487470648867671
  0.2760282554187157  0.7178197803022996  0.5549888895150730
  0.7761296651777840  0.2179780011192491  0.0550066825830839
  0.7525959785232033  0.7565501907751013  0.4993736215563658
  0.2527453374374247  0.2563024155504579  0.9993349439718813
  0.2667339177587991  0.2644697913328642  0.5033387205755133
  0.7667068741522201  0.7644340454299581  0.0032248399814208
 
  0.00000000E+00  0.00000000E+00  0.00000000E+00
  0.00000000E+00  0.00000000E+00  0.00000000E+00
  0.00000000E+00  0.00000000E+00  0.00000000E+00
  0.00000000E+00  0.00000000E+00  0.00000000E+00
  0.00000000E+00  0.00000000E+00  0.00000000E+00
  0.00000000E+00  0.00000000E+00  0.00000000E+00
  0.00000000E+00  0.00000000E+00  0.00000000E+00
  0.00000000E+00  0.00000000E+00  0.00000000E+00
  0.00000000E+00  0.00000000E+00  0.00000000E+00
  0.00000000E+00  0.00000000E+00  0.00000000E+00
  0.00000000E+00  0.00000000E+00  0.00000000E+00
  0.00000000E+00  0.00000000E+00  0.00000000E+00
  0.00000000E+00  0.00000000E+00  0.00000000E+00
  0.00000000E+00  0.00000000E+00  0.00000000E+00
  0.00000000E+00  0.00000000E+00  0.00000000E+00
  0.00000000E+00  0.00000000E+00  0.00000000E+00
  0.00000000E+00  0.00000000E+00  0.00000000E+00
  0.00000000E+00  0.00000000E+00  0.00000000E+00
  0.00000000E+00  0.00000000E+00  0.00000000E+00
  0.00000000E+00  0.00000000E+00  0.00000000E+00
