Cs2GeSnCl2Br4 conventional 20-atom cell from tight parent
1.0
    0.000000042293     5.763407690497     5.763407777670
    0.000000031870    -5.763407619416     5.763407706729
   10.929469056412     0.000000010504     0.000000070181
Cs Ge Sn Cl Br
4 2 2 4 8
Direct
    0.000000000585     0.500000000377     0.249999999635
    0.500000000214     0.999999999846     0.249999999627
    0.500000000585     0.000000000377     0.749999999635
    0.000000000214     0.499999999846     0.749999999627
    0.499999999767     0.500000000341     0.500000000071
    0.999999999767     0.000000000341     0.000000000071
    0.499999999016     0.499999999174     0.000000002079
    0.999999999016     0.999999999174     0.500000002079
    0.000000001681     0.000000002049     0.243127460282
    0.499999998377     0.499999998675     0.256872539214
    0.500000001681     0.500000002049     0.743127460282
    0.999999998377     0.999999998675     0.756872539214
    0.243951551501     0.756048447121     0.999999999878
    0.256048448495     0.743951552657     0.499999999555
    0.243951551593     0.243951551307     0.999999999780
    0.256048448772     0.256048448454     0.499999999880
    0.743951551501     0.256048447121     0.499999999878
    0.756048448495     0.243951552657     0.999999999555
    0.743951551593     0.743951551307     0.499999999780
    0.756048448772     0.756048448454     0.999999999880
