Cs2GeSnCl2Br4 mode120 round3 +Q maxdisp=
   1.00000000000000     
    11.1940912364972593   -0.0829142038923297   -0.0967242856555003
    -0.0847012470505555   11.8008093439223458    0.0837146428486087
    -0.0995343564830619    0.0850710933526127   11.6290269447989374
   Cs   Ge   Sn   Cl   Br
     8     4     4     8    16
Direct
  0.7481388945390058  0.7638707863975897  0.7524868484746635
  0.2481361167329164  0.2638486339095515  0.7526273445927252
  0.2480355626409940  0.7636066667530622  0.2526122201580689
  0.7480266493764326  0.2636218246718950  0.2526282013570214
  0.7467012156963212  0.7382552341297423  0.2488827694529465
  0.2466471305606598  0.2382653103109730  0.2488606856168286
  0.7467344044968632  0.2385003270584525  0.7490558372885724
  0.2467221054059693  0.7384949507171963  0.7490795937573852
  0.9819342963258229  0.0100580018779664  0.0059224768559754
  0.9818750235725429  0.5100909918326978  0.5059824023499642
  0.4818304719739185  0.0101087455613176  0.5059284002451654
  0.4818830028468171  0.5100711041730659  0.0059361852200536
  0.4901788715043312  0.5073625019987705  0.5113737566048311
  0.4901162187376391  0.0072191533156627  0.0113792383738817
  0.9901473010326117  0.5072152399888803  0.0113957263924754
  0.9901559121777598  0.0073804173059561  0.5113443531105751
  0.2640170703845408  0.5050836383750578  0.5520052358583216
  0.2639641089027804  0.0043826537894716  0.0520547250339070
  0.7640001304953172  0.5044018325708521  0.0519887012213897
  0.7640000917702918  0.0050199450547714  0.5519490440630955
  0.7727993646754211  0.4988670192596356  0.4582831247881890
  0.7728618199914160 -0.0007825722460925  0.9582760748466880
  0.2727833061943689  0.4992287962964156  0.9582132809267596
  0.2727360674620114  0.9989188581748440  0.4582683533865734
  0.4940169879484296  0.2331469972001838  0.4949172177152995
  0.4945206821787771  0.7331232854641534  0.9949385577426704
  0.9944930178493758  0.2331095381452902  0.9949824220932001
  0.9940720419349858  0.7331531675844071  0.4949916688430670
  0.5028797121253215  0.7439139801498341  0.5014410933228751
  0.5024181011533971  0.2438364425703745  0.0014900629156204
  0.0023611052666037  0.7438183194223971  0.0014108866774887
  0.0029168231434125  0.2439359835876314  0.5014651902883891
  0.4560850218293248  0.5028171940343346  0.2298861357899730
  0.4562124694700974  0.0028031607433369  0.7299663198322129
  0.9562034608911818  0.5027668289553791  0.7299148641852138
  0.9561339463692760  0.0027924469824592  0.2299570359857848
  0.5465200657273741  0.4968328139476525  0.7446553615431070
  0.5465077767892612  0.9967827858885829  0.2446835369391751
  0.0464578350888634  0.4968288382116106  0.2446520245586290
  0.0465244956193984  0.9969068072238692  0.7446944474415188
 
  0.00000000E+00  0.00000000E+00  0.00000000E+00
  0.00000000E+00  0.00000000E+00  0.00000000E+00
  0.00000000E+00  0.00000000E+00  0.00000000E+00
  0.00000000E+00  0.00000000E+00  0.00000000E+00
  0.00000000E+00  0.00000000E+00  0.00000000E+00
  0.00000000E+00  0.00000000E+00  0.00000000E+00
  0.00000000E+00  0.00000000E+00  0.00000000E+00
  0.00000000E+00  0.00000000E+00  0.00000000E+00
  0.00000000E+00  0.00000000E+00  0.00000000E+00
  0.00000000E+00  0.00000000E+00  0.00000000E+00
  0.00000000E+00  0.00000000E+00  0.00000000E+00
  0.00000000E+00  0.00000000E+00  0.00000000E+00
  0.00000000E+00  0.00000000E+00  0.00000000E+00
  0.00000000E+00  0.00000000E+00  0.00000000E+00
  0.00000000E+00  0.00000000E+00  0.00000000E+00
  0.00000000E+00  0.00000000E+00  0.00000000E+00
  0.00000000E+00  0.00000000E+00  0.00000000E+00
  0.00000000E+00  0.00000000E+00  0.00000000E+00
  0.00000000E+00  0.00000000E+00  0.00000000E+00
  0.00000000E+00  0.00000000E+00  0.00000000E+00
  0.00000000E+00  0.00000000E+00  0.00000000E+00
  0.00000000E+00  0.00000000E+00  0.00000000E+00
  0.00000000E+00  0.00000000E+00  0.00000000E+00
  0.00000000E+00  0.00000000E+00  0.00000000E+00
  0.00000000E+00  0.00000000E+00  0.00000000E+00
  0.00000000E+00  0.00000000E+00  0.00000000E+00
  0.00000000E+00  0.00000000E+00  0.00000000E+00
  0.00000000E+00  0.00000000E+00  0.00000000E+00
  0.00000000E+00  0.00000000E+00  0.00000000E+00
  0.00000000E+00  0.00000000E+00  0.00000000E+00
  0.00000000E+00  0.00000000E+00  0.00000000E+00
  0.00000000E+00  0.00000000E+00  0.00000000E+00
  0.00000000E+00  0.00000000E+00  0.00000000E+00
  0.00000000E+00  0.00000000E+00  0.00000000E+00
  0.00000000E+00  0.00000000E+00  0.00000000E+00
  0.00000000E+00  0.00000000E+00  0.00000000E+00
  0.00000000E+00  0.00000000E+00  0.00000000E+00
  0.00000000E+00  0.00000000E+00  0.00000000E+00
  0.00000000E+00  0.00000000E+00  0.00000000E+00
  0.00000000E+00  0.00000000E+00  0.00000000E+00
