Cs2GeSnCl2Br4 ordered trans-Cl2Br4, 40-a
   1.00000000000000     
    10.9294690564118184    0.0000000105044276    0.0000000701810664
     0.0000000104232782   11.5268153099131574    0.0000000709411595
     0.0000000741626989    0.0000000710804716   11.5268154843996999
   Cs   Ge   Sn   Cl   Br
     8     4     4     8    16
Direct
  0.7499999997819924  0.7499999995839302  0.7500000005573656
  0.2499999996954502  0.2500000004265278  0.7500000008065204
  0.2499999988763133  0.7500000005939538  0.2500000006814337
  0.7500000001862509  0.2499999998109062  0.2499999998774411
  0.7500000004443570  0.7500000005416689  0.2500000003890538
  0.2499999991306223  0.2500000001758179  0.2499999996674605
  0.7499999990968119  0.2500000003460702  0.7500000010048384
  0.2499999998369176  0.7499999996728556  0.7499999990591236
 -0.0000000007001302 -0.0000000008055118  0.0000000008757357
 -0.0000000005970809  0.4999999984216466  0.4999999987513671
  0.5000000009251385 -0.0000000002674998  0.4999999993772054
  0.5000000006543749  0.5000000015038141  0.0000000012114085
  0.5000000037277174  0.4999999982015271  0.4999999994288907
  0.5000000018703258 -0.0000000006642032 -0.0000000010660647
  0.0000000037748100  0.4999999995892145 -0.0000000016198508
 -0.0000000010581149  0.0000000025559465  0.4999999996365639
  0.2431274589149912  0.4999999993672830  0.5000000020411555
  0.2431274589793861 -0.0000000002108587  0.0000000014113352
  0.7431274619772651  0.4999999990144386  0.0000000015355196
  0.7431274612543991  0.0000000010928905  0.5000000024715802
  0.7568725407030292  0.4999999993399709  0.4999999990283692
  0.7568725390644103  0.0000000006383247 -0.0000000019295054
  0.2568725387134755  0.4999999992592921 -0.0000000017994330
  0.2568725383761351  0.0000000001674935  0.4999999988053438
  0.4999999995478988  0.2439515526295331  0.5000000000732636
  0.4999999991724597  0.7439515524737591 -0.0000000011682402
  0.0000000000040495  0.2439515521964376 -0.0000000012673742
  0.0000000007869724  0.7439515514594117  0.4999999996061765
  0.4999999983303494  0.7560484476995440  0.5000000010428648
  0.4999999992632968  0.2560484478427361  0.0000000000046327
  0.0000000008535673  0.7560484476507432  0.0000000001314096
 -0.0000000002258467  0.2560484484827916  0.5000000011245600
  0.4999999985449057  0.4999999993235630  0.2439515519966284
  0.4999999996387696  0.0000000012099943  0.7439515513310051
  0.0000000001775532  0.4999999994585498  0.7439515507687768
  0.0000000007571271  0.0000000005807597  0.2439515517024932
  0.4999999995485410  0.4999999989528834  0.7560484474826518
  0.4999999996103616  0.0000000009213018  0.2560484493539055
  0.0000000007950073  0.5000000000055876  0.2560484494658679
 -0.0000000004338607  0.0000000007569053  0.7560484481485201
 
  0.00000000E+00  0.00000000E+00  0.00000000E+00
  0.00000000E+00  0.00000000E+00  0.00000000E+00
  0.00000000E+00  0.00000000E+00  0.00000000E+00
  0.00000000E+00  0.00000000E+00  0.00000000E+00
  0.00000000E+00  0.00000000E+00  0.00000000E+00
  0.00000000E+00  0.00000000E+00  0.00000000E+00
  0.00000000E+00  0.00000000E+00  0.00000000E+00
  0.00000000E+00  0.00000000E+00  0.00000000E+00
  0.00000000E+00  0.00000000E+00  0.00000000E+00
  0.00000000E+00  0.00000000E+00  0.00000000E+00
  0.00000000E+00  0.00000000E+00  0.00000000E+00
  0.00000000E+00  0.00000000E+00  0.00000000E+00
  0.00000000E+00  0.00000000E+00  0.00000000E+00
  0.00000000E+00  0.00000000E+00  0.00000000E+00
  0.00000000E+00  0.00000000E+00  0.00000000E+00
  0.00000000E+00  0.00000000E+00  0.00000000E+00
  0.00000000E+00  0.00000000E+00  0.00000000E+00
  0.00000000E+00  0.00000000E+00  0.00000000E+00
  0.00000000E+00  0.00000000E+00  0.00000000E+00
  0.00000000E+00  0.00000000E+00  0.00000000E+00
  0.00000000E+00  0.00000000E+00  0.00000000E+00
  0.00000000E+00  0.00000000E+00  0.00000000E+00
  0.00000000E+00  0.00000000E+00  0.00000000E+00
  0.00000000E+00  0.00000000E+00  0.00000000E+00
  0.00000000E+00  0.00000000E+00  0.00000000E+00
  0.00000000E+00  0.00000000E+00  0.00000000E+00
  0.00000000E+00  0.00000000E+00  0.00000000E+00
  0.00000000E+00  0.00000000E+00  0.00000000E+00
  0.00000000E+00  0.00000000E+00  0.00000000E+00
  0.00000000E+00  0.00000000E+00  0.00000000E+00
  0.00000000E+00  0.00000000E+00  0.00000000E+00
  0.00000000E+00  0.00000000E+00  0.00000000E+00
  0.00000000E+00  0.00000000E+00  0.00000000E+00
  0.00000000E+00  0.00000000E+00  0.00000000E+00
  0.00000000E+00  0.00000000E+00  0.00000000E+00
  0.00000000E+00  0.00000000E+00  0.00000000E+00
  0.00000000E+00  0.00000000E+00  0.00000000E+00
  0.00000000E+00  0.00000000E+00  0.00000000E+00
  0.00000000E+00  0.00000000E+00  0.00000000E+00
  0.00000000E+00  0.00000000E+00  0.00000000E+00
